WARNING: for repeatability, setting FPU to use double precision
============================[ Problem Statistics ]=============================
|                                                                             |
|  Number of variables:            50                                         |
|  Number of clauses:             218                                         |
|  Parse time:                   0.00 s                                       |
|                                                                             |
============================[ Search Statistics ]==============================
| Conflicts |          ORIGINAL         |          LEARNT          | Progress |
|           |    Vars  Clauses Literals |    Limit  Clauses Lit/Cl |          |
===============================================================================
===============================================================================
restarts              : 1
conflicts             : 30             (21082 /sec)
decisions             : 49             (0.00 % random) (34434 /sec)
propagations          : 490            (344343 /sec)
conflict literals     : 106            (21.48 % deleted)
Memory used           : 20.00 MB
CPU time              : 0.001423 s

SATISFIABLE
